p tw 128 140
1 2
2 41
3 14
4 5
4 8
5 6
6 7
7 15
8 9
9 10
10 11
11 12
12 13
13 113
14 25
15 16
16 17
17 18
18 19
19 20
20 21
21 22
22 23
23 24
24 85
25 34
25 30
26 27
27 28
28 29
29 85
30 31
31 32
32 33
34 35
35 36
36 37
37 38
38 39
39 40
40 42
41 52
42 43
43 44
44 45
45 46
46 47
47 48
48 49
49 50
49 26
50 51
51 53
52 63
53 54
53 57
54 55
55 56
56 32
57 58
58 59
59 60
60 61
61 62
62 64
63 74
64 65
65 66
66 67
67 68
68 69
69 70
69 90
70 71
71 72
72 73
73 75
74 85
75 76
76 77
77 78
77 79
78 79
79 80
80 81
81 82
82 83
83 84
84 86
85 96
86 87
87 88
88 89
89 22
90 91
91 92
92 93
93 94
94 95
95 97
96 107
96 30
97 98
98 99
99 100
99 22
100 101
101 102
102 103
103 104
104 105
105 106
106 108
107 118
108 109
108 15
109 110
110 111
111 112
112 113
113 114
114 115
115 116
116 117
117 119
118 3
119 120
119 15
120 121
121 122
122 123
123 124
123 5
124 125
125 126
125 5
126 127
127 128
127 5
128 4
